
Gurobi 7.0.1 (win64) logging started 04/03/17 20:28:26

Changed value of parameter LogFile to outputlogs\log_LPIP_prov_code_7_8_9_10_1491265706.log
   Prev: gurobi.log  Default: 
Optimize a model with 9684 rows, 421368 columns and 843170 nonzeros
Variable types: 0 continuous, 421368 integer (421368 binary)
Coefficient statistics:
  Matrix range     [1e+00, 4e+03]
  Objective range  [6e+00, 2e+07]
  Bounds range     [1e+00, 1e+00]
  RHS range        [1e+00, 4e+01]
Presolve removed 143 rows and 0 columns
Presolve time: 1.27s
Presolved: 9541 rows, 421368 columns, 843027 nonzeros
Variable types: 0 continuous, 421368 integer (421368 binary)

Root simplex log...

Iteration    Objective       Primal Inf.    Dual Inf.      Time
       0    0.0000000e+00   8.814000e+03   0.000000e+00    199s
    8957    7.2571122e+07   0.000000e+00   0.000000e+00    199s

Root relaxation: objective 7.257112e+07, 8957 iterations, 0.14 seconds

    Nodes    |    Current Node    |     Objective Bounds      |     Work
 Expl Unexpl |  Obj  Depth IntInf | Incumbent    BestBd   Gap | It/Node Time

     0     0 7.2571e+07    0   34          - 7.2571e+07      -     -  199s
     0     0 7.4258e+07    0  577          - 7.4258e+07      -     -  243s
     0     0 7.4383e+07    0  562          - 7.4383e+07      -     -  245s
     0     0 7.5663e+07    0  805          - 7.5663e+07      -     -  246s
     0     0 7.5872e+07    0 1507          - 7.5872e+07      -     -  248s
     0     0 7.5941e+07    0 1552          - 7.5941e+07      -     -  251s
     0     0 7.5941e+07    0 1559          - 7.5941e+07      -     -  252s
     0     0 7.5982e+07    0   91          - 7.5982e+07      -     -  253s
     0     0 7.5983e+07    0   59          - 7.5983e+07      -     -  254s
     0     0 7.6003e+07    0   82          - 7.6003e+07      -     -  254s
     0     0 7.6003e+07    0   82          - 7.6003e+07      -     -  297s
     0     0 7.6339e+07    0 1156          - 7.6339e+07      -     -  297s
     0     0 7.6460e+07    0 1277          - 7.6460e+07      -     -  299s
     0     0 7.6460e+07    0 1279          - 7.6460e+07      -     -  299s
     0     0 7.6472e+07    0  104          - 7.6472e+07      -     -  300s
     0     0 7.6473e+07    0   98          - 7.6473e+07      -     -  301s
     0     0 7.6475e+07    0   86          - 7.6475e+07      -     -  301s
     0     0 7.6475e+07    0   86          - 7.6475e+07      -     -  341s
     0     0 7.6657e+07    0  957          - 7.6657e+07      -     -  341s
     0     0 7.6720e+07    0  177          - 7.6720e+07      -     -  342s
     0     0 7.6720e+07    0  165          - 7.6720e+07      -     -  359s
     0     0 7.6720e+07    0  165          - 7.6720e+07      -     -  401s
     0     0 7.6720e+07    0  165          - 7.6720e+07      -     -  441s
     0     0 7.6720e+07    0  165          - 7.6720e+07      -     -  482s
     0     0 7.6720e+07    0  165          - 7.6720e+07      -     -  522s
     0     0 7.6720e+07    0  165          - 7.6720e+07      -     -  563s
     0     2 7.6721e+07    0  181          - 7.6721e+07      -     -  568s
     1     4 7.6722e+07    1  146          - 7.6721e+07      -  2139  603s
     3     6 7.6722e+07    2  194          - 7.6722e+07      -   822  614s
     5     8 7.6726e+07    2 1323          - 7.6723e+07      -   735  656s
     9     9 7.6735e+07    4  127          - 7.6723e+07      -   674  681s
    11    12 7.6736e+07    5  158          - 7.6723e+07      -   612  699s
    13    14 7.6736e+07    6  158          - 7.6723e+07      -   566  711s
    16    17 7.6736e+07    8  128          - 7.6723e+07      -   467  725s
    22    23 7.6802e+07   13   76          - 7.6723e+07      -   350  741s
    28    29 7.6803e+07   18   60          - 7.6723e+07      -   290  762s
    35    37 7.6804e+07   22   48          - 7.6723e+07      -   234  778s
    45    45 7.6804e+07   30   40          - 7.6723e+07      -   188  805s
    56    57 7.6804e+07   38   40          - 7.6723e+07      -   155  826s
    67    68 7.6730e+07   13  195          - 7.6723e+07      -   134  867s
    68    69 7.6804e+07   49   70          - 7.6723e+07      -   142  885s
    80    81 7.6731e+07   14  236          - 7.6723e+07      -   133  926s
    81    82 7.6804e+07   60   90          - 7.6723e+07      -   135  953s
    95    96 7.6731e+07   15  284          - 7.6723e+07      -   121  995s
    96    97 7.6804e+07   72   90          - 7.6723e+07      -   120 1033s
   112   113 7.6805e+07   85   90          - 7.6723e+07      -   113 1401s
   130   132 7.6805e+07  101   90          - 7.6723e+07      -   102 1459s
   149   150 7.6732e+07   18  608          - 7.6723e+07      -  93.3 1500s
   150   150 7.6805e+07  118   90          - 7.6723e+07      -  93.6 1521s
   171   172 7.6732e+07   19  386          - 7.6723e+07      -  84.1 1561s
   173   174 7.6805e+07  136  100          - 7.6723e+07      -  84.5 1604s
   196   197 7.6732e+07   21  272          - 7.6723e+07      -  75.6 1644s
   197   198 7.6805e+07  159   96          - 7.6723e+07      -  75.9 1682s
   222   223 7.6732e+07   22  272          - 7.6723e+07      -  70.0 1722s
   223   224 7.6806e+07  184  158          - 7.6723e+07      -  71.2 1899s
   238   239 7.6732e+07   23 1514          - 7.6723e+07      -  76.0 1939s
   239   240 7.6806e+07  199  240          - 7.6723e+07      -  75.8 1973s
   268   269 7.6732e+07   24  393          - 7.6723e+07      -  78.2 2014s
   270   271 7.6806e+07  227   95          - 7.6723e+07      -  78.4 2045s
   303   304 7.6732e+07   26  573          - 7.6723e+07      -  70.9 2086s
   304   305 7.6806e+07  259   96          - 7.6723e+07      -  70.7 2141s
   340   341 7.6732e+07   27  431          - 7.6723e+07      -  63.7 2181s
   342   343 7.6806e+07  295   96          - 7.6723e+07      -  63.9 2218s
   382   383 7.6732e+07   29  387          - 7.6723e+07      -  58.4 2259s
   384   385 7.6806e+07  335   96          - 7.6723e+07      -  58.3 2312s
   424   425 7.6733e+07   31  345          - 7.6723e+07      -  54.5 2353s
   426   427 7.6806e+07  375  101          - 7.6723e+07      -  55.0 2393s
   431   432 7.6806e+07  379  323          - 7.6723e+07      -  55.8 2469s
   434   435 7.6806e+07  380  101          - 7.6723e+07      -  55.5 2560s
   459   460 7.6806e+07  403  339          - 7.6723e+07      -  53.7 2651s
   463   464 7.6806e+07  405  447          - 7.6723e+07      -  53.7 2693s
   515   513 7.6735e+07   40  383          - 7.6723e+07      -  48.8 2734s
   567   564 7.6845e+07  455  105          - 7.6723e+07      -  45.8 2741s
   691   685 7.6895e+07  517  105          - 7.6723e+07      -  38.3 2795s
   837   827 7.6895e+07  589  105          - 7.6723e+07      -  32.3 2844s
   983   970 7.6925e+07  657  110          - 7.6723e+07      -  28.5 2894s
  1129  1117 7.6926e+07  725  110          - 7.6723e+07      -  25.6 2942s
  1275  1261 7.6926e+07  794  110          - 7.6723e+07      -  23.6 2990s
  1421  1408 7.6926e+07  864  108          - 7.6723e+07      -  21.6 2998s
  1567  1551 7.7010e+07  934  108          - 7.6723e+07      -  19.8 3047s
  1713  1695 7.7012e+07 1001  104          - 7.6723e+07      -  18.3 3055s
  1859  1840 7.7012e+07 1074  104          - 7.6723e+07      -  17.3 3105s
  2002  1983 7.7013e+07 1144  104          - 7.6723e+07      -  16.2 3111s
  2148  2123 7.7022e+07 1211  102          - 7.6723e+07      -  15.3 3163s
  2290  2260 7.7022e+07 1284  114          - 7.6723e+07      -  15.8 3213s
  2433  2369 7.6888e+07  195  165          - 7.6723e+07      -  16.7 3301s
  2434  2370 7.6802e+07   13  165          - 7.6723e+07      -  16.7 3352s
  2435  2370 7.6855e+07  380  220          - 7.6723e+07      -  16.7 3409s
  2436  2371 7.6805e+07  172  167          - 7.6723e+07      -  16.7 3416s
  2438  2372 7.7012e+07  979  183          - 7.6745e+07      -  16.7 3424s
  2439  2373 7.6846e+07  477  196          - 7.6750e+07      -  16.7 3427s
  2440  2374 7.6891e+07  511  261          - 7.6762e+07      -  16.7 3431s
  2442  2375 7.6806e+07  240  188          - 7.6768e+07      -  16.7 3438s
  2443  2376 7.6925e+07  722  276          - 7.6769e+07      -  16.7 3441s
  2444  2376 7.6928e+07  676  280          - 7.6772e+07      -  16.7 3446s
  2446  2378 7.7013e+07 1075  288          - 7.6775e+07      -  16.7 3453s
  2447  2378 7.7033e+07 1144  290          - 7.6775e+07      -  16.6 3456s
  2448  2379 7.7016e+07 1122  298          - 7.6776e+07      -  16.6 3460s
  2450  2380 7.6848e+07  473  306          - 7.6776e+07      -  16.6 3468s
  2451  2381 7.6929e+07  870  320          - 7.6777e+07      -  16.6 3470s
  2452  2382 7.6804e+07   49  324          - 7.6777e+07      -  16.6 3475s
  2454  2383 7.6802e+07   13  334          - 7.6777e+07      -  16.6 3483s
  2455  2384 7.6855e+07  380  340          - 7.6777e+07      -  16.6 3485s
  2456  2384 7.6805e+07  172  340          - 7.6777e+07      -  16.6 3490s
  2458  2386 7.7012e+07  979  344          - 7.6777e+07      -  16.6 3498s
  2459  2386 7.6846e+07  477  342          - 7.6777e+07      -  16.6 3501s
  2460  2387 7.6891e+07  511  342          - 7.6777e+07      -  16.6 3505s
  2462  2388 7.6806e+07  240  350          - 7.6777e+07      -  16.5 3513s
  2463  2389 7.6925e+07  722  358          - 7.6777e+07      -  16.5 3516s
  2464  2390 7.6928e+07  676  360          - 7.6777e+07      -  16.5 3520s
  2466  2391 7.7013e+07 1075  364          - 7.6777e+07      -  16.5 3527s
  2468  2392 7.7016e+07 1122  358          - 7.6777e+07      -  16.5 3533s
  2469  2393 7.6983e+07  769  345          - 7.6777e+07      -  16.5 3535s
  2470  2394 7.6848e+07  473  342          - 7.6777e+07      -  16.5 3745s
  2472  2395 7.6804e+07   49  350          - 7.6777e+07      -  16.5 3752s
  2474  2396 7.6802e+07   13  354          - 7.6778e+07      -  16.5 3758s
  2475  2397 7.6855e+07  380  352          - 7.6778e+07      -  16.5 3761s
  2476  2398 7.6805e+07  172  364          - 7.6778e+07      -  16.5 3807s
  2477  2398 7.6926e+07  874  358          - 7.6778e+07      -  16.4 3810s
  2478  2399 7.7012e+07  979  421          - 7.6778e+07      -  16.4 3856s
  2480  2400 7.6891e+07  511  374          - 7.6778e+07      -  16.4 3908s
  2481  2401 7.6925e+07  721  286          - 7.6778e+07      -  16.4 3910s
  2482  2402 7.6806e+07  240  290          - 7.6778e+07      -  16.4 3957s
  2484  2403 7.6928e+07  676  292          - 7.6778e+07      -  16.4 4006s
  2486  2404 7.7013e+07 1075  294          - 7.6779e+07      -  16.4 4222s
  2487  2405 7.7033e+07 1144  315          - 7.6779e+07      -  16.4 4225s
  2488  2406 7.7016e+07 1122  286          - 7.6779e+07      -  16.4 4273s
  2489  2406 7.6983e+07  769  290          - 7.6779e+07      -  16.4 4275s
  2490  2407 7.6848e+07  473  477          - 7.6779e+07      -  16.4 4323s
  2491  2408 7.6929e+07  870  487          - 7.6779e+07      -  16.4 4325s
  2492  2408 7.6804e+07   49  366          - 7.6779e+07      -  16.3 4373s
  2493  2409 7.6888e+07  195  370          - 7.6779e+07      -  16.3 4375s
  2494  2410 7.6802e+07   13  376          - 7.6779e+07      -  16.3 4588s
  2495  2410 7.6855e+07  380  372          - 7.6779e+07      -  16.3 4591s
  2496  2411 7.6805e+07  172  372          - 7.6779e+07      -  16.3 4801s
  2498  2412 7.7012e+07  979  376          - 7.6779e+07      -  16.3 4807s
  2500  2414 7.6891e+07  511  366          - 7.6780e+07      -  16.3 4814s
  2501  2414 7.6925e+07  721  374          - 7.6780e+07      -  16.3 4817s
  2502  2415 7.6806e+07  240  384          - 7.6780e+07      -  16.3 4863s
  2503  2416 7.6925e+07  722  392          - 7.6780e+07      -  16.3 4865s
  2504  2416 7.6928e+07  676  388          - 7.6780e+07      -  16.3 5120s
  2506  2418 7.7013e+07 1075  392          - 7.6780e+07      -  16.3 5127s
  2508  2419 7.7016e+07 1122  390          - 7.6780e+07      -  16.2 5134s
  2509  2420 7.6983e+07  769  394          - 7.6780e+07      -  16.2 5136s
  2510  2420 7.6848e+07  473  392          - 7.6780e+07      -  16.2 5140s
  2512  2422 7.6804e+07   49  386          - 7.6780e+07      -  16.2 5394s
  2513  2422 7.6888e+07  195  388          - 7.6780e+07      -  16.2 5396s
  2514  2423 7.6802e+07   13  388          - 7.6780e+07      -  16.2 5400s
  2516  2424 7.6805e+07  172  390          - 7.6780e+07      -  16.2 5406s
  2518  2426 7.7012e+07  979  427          - 7.6780e+07      -  16.2 5455s
  2520  2427 7.6891e+07  511  397          - 7.6780e+07      -  16.2 5504s
  2521  2428 7.6925e+07  721  406          - 7.6780e+07      -  16.2 5506s
  2522  2428 7.6806e+07  240  428          - 7.6780e+07      -  16.2 5552s
  2523  2429 7.6925e+07  722  428          - 7.6780e+07      -  16.1 5555s
  2524  2430 7.6928e+07  676  432          - 7.6780e+07      -  16.1 5767s
  2526  2431 7.7013e+07 1075  432          - 7.6780e+07      -  16.1 5773s
  2527  2432 7.7033e+07 1144  434          - 7.6780e+07      -  16.1 5776s
  2528  2432 7.7016e+07 1122  434          - 7.6781e+07      -  16.1 5780s
  2530  2434 7.6848e+07  473  404          - 7.6781e+07      -  16.1 6034s
  2531  2434 7.6929e+07  870  416          - 7.6781e+07      -  16.1 6036s
  2532  2435 7.6804e+07   49  432          - 7.6781e+07      -  16.1 6041s
  2534  2436 7.6802e+07   13  408          - 7.6781e+07      -  16.1 6047s
  2536  2438 7.6805e+07  172  412          - 7.6781e+07      -  16.1 6053s
  2537  2438 7.6926e+07  874  414          - 7.6781e+07      -  16.1 6055s
H 2537  2314                    8.193249e+07 7.6781e+07  6.29%  16.1 6100s
H 2537  2196                    7.685163e+07 7.6781e+07  0.09%  16.1 6224s
  2538  2197 7.6852e+07  979  412 7.6852e+07 7.6781e+07  0.09%  16.1 6429s
  2539  2198 7.6846e+07  477  412 7.6852e+07 7.6781e+07  0.09%  16.0 6431s
  2540  2198 7.6852e+07  511  406 7.6852e+07 7.6781e+07  0.09%  16.0 6435s
  2542  2201 7.6806e+07  240  165 7.6852e+07 7.6781e+07  0.09%   112 6465s
  2544  2202 7.6852e+07  676  230 7.6852e+07 7.6781e+07  0.09%   112 6677s
  2545  2203 7.6852e+07  855  160 7.6852e+07 7.6781e+07  0.09%   112 6722s
H 2546  2093                    7.680854e+07 7.6781e+07  0.04%   111 6889s
  2548  2094 7.6809e+07 1122  215 7.6809e+07 7.6781e+07  0.04%   111 6891s
  2550  2095 7.6809e+07  473  256 7.6809e+07 7.6781e+07  0.04%   111 6895s
  2553  2099 7.6809e+07  195  165 7.6809e+07 7.6781e+07  0.04%   130 6908s
  2555  2100 7.6809e+07  380  238 7.6809e+07 7.6781e+07  0.04%   130 6911s
  2558  2102 7.6809e+07  979   48 7.6809e+07 7.6781e+07  0.04%   130 6915s
  2562  2105 7.6806e+07  240  197 7.6809e+07 7.6781e+07  0.04%   129 7124s
  2563  2106 7.6809e+07  722  330 7.6809e+07 7.6781e+07  0.04%   129 7125s
  2568  2109 7.6809e+07 1122  310 7.6809e+07 7.6781e+07  0.04%   129 7131s
  2572  2112 7.6804e+07   49  392 7.6809e+07 7.6781e+07  0.04%   129 7136s
  2574  2114 7.6802e+07   13  165 7.6809e+07 7.6781e+07  0.04%   151 7142s
  2577  2116 7.6809e+07  874  156 7.6809e+07 7.6781e+07  0.04%   151 7145s
  2583  2120 7.6809e+07  722  260 7.6809e+07 7.6781e+07  0.04%   151 7150s
  2587  2123 7.6809e+07 1144  286 7.6809e+07 7.6781e+07  0.04%   150 7358s
  2590  2125 7.6809e+07  473  300 7.6809e+07 7.6781e+07  0.04%   150 7360s
  2595  2128 7.6809e+07  380  338 7.6809e+07 7.6781e+07  0.04%   150 7366s
  2599  2131 7.6809e+07  477  338 7.6809e+07 7.6781e+07  0.04%   150 7370s
  2605  2135 7.6809e+07  855  362 7.6809e+07 7.6781e+07  0.04%   149 7375s
  2611  2139 7.6809e+07  870  358 7.6809e+07 7.6781e+07  0.04%   149 7380s
  2619  2144 7.6809e+07  477  378 7.6809e+07 7.6781e+07  0.04%   149 7385s
H 2620  2037                    7.680689e+07 7.6781e+07  0.03%   148 7593s
  2623  2039 7.6807e+07  722  382 7.6807e+07 7.6781e+07  0.03%   148 7595s
  2630  2043 7.6807e+07  473  392 7.6807e+07 7.6781e+07  0.03%   148 7600s
  2637  2048 7.6807e+07  874  408 7.6807e+07 7.6781e+07  0.03%   147 7605s
  2644  2053 7.6807e+07  676  406 7.6807e+07 7.6781e+07  0.03%   147 7610s
  2651  2057 7.6807e+07  870  350 7.6807e+07 7.6781e+07  0.03%   147 7615s
  2657  2061 7.6807e+07  874  374 7.6807e+07 7.6781e+07  0.03%   146 7620s
  2665  2067 7.6807e+07  855  406 7.6807e+07 7.6781e+07  0.03%   146 7625s
  2671  2071 7.6807e+07  870  408 7.6807e+07 7.6781e+07  0.03%   146 7630s
  2678  2075 7.6807e+07  979  414 7.6807e+07 7.6781e+07  0.03%   145 7635s
  2685  2080 7.6807e+07  855  412 7.6807e+07 7.6781e+07  0.03%   145 7640s
  2691  2084 7.6807e+07  870  430 7.6807e+07 7.6781e+07  0.03%   145 7645s
  2698  2089 7.6807e+07  979  425 7.6807e+07 7.6781e+07  0.03%   144 7650s
H 2704  1986                    7.680677e+07 7.6781e+07  0.03%   144 7697s
  2709  1989 7.6807e+07  769  438 7.6807e+07 7.6781e+07  0.03%   144 7700s
  2716  1994 7.6805e+07  172  433 7.6807e+07 7.6781e+07  0.03%   143 7705s
  2723  1998 7.6807e+07  722  427 7.6807e+07 7.6782e+07  0.03%   143 7711s
  2728  2002 7.6807e+07 1122  428 7.6807e+07 7.6782e+07  0.03%   143 7715s
  2735  2006 7.6807e+07  380  431 7.6807e+07 7.6782e+07  0.03%   142 7721s
  2740  2010 7.6807e+07  511  426 7.6807e+07 7.6782e+07  0.03%   142 7725s
  2746  2014 7.6807e+07 1075  397 7.6807e+07 7.6782e+07  0.03%   142 7730s
  2753  2018 7.6807e+07  195  404 7.6807e+07 7.6782e+07  0.03%   141 7736s
  2757  2021 7.6807e+07  874  451 7.6807e+07 7.6782e+07  0.03%   141 7740s
  2763  2025 7.6807e+07  722  407 7.6807e+07 7.6782e+07  0.03%   141 7745s
  2769  2029 7.6807e+07  769  415 7.6807e+07 7.6782e+07  0.03%   140 7750s
  2775  2033 7.6807e+07  380  420 7.6807e+07 7.6782e+07  0.03%   140 7764s
  2776  2034 7.6805e+07  172  420 7.6807e+07 7.6782e+07  0.03%   140 8013s
  2777  2036 7.6807e+07  874  165 7.6807e+07 7.6782e+07  0.03%   190 8017s
  2779  2037 7.6807e+07  477  138 7.6807e+07 7.6782e+07  0.03%   190 8222s
  2784  2041 7.6807e+07  676  221 7.6807e+07 7.6782e+07  0.03%   190 8225s
  2790  2045 7.6807e+07  473  207 7.6807e+07 7.6782e+07  0.03%   189 8230s
  2796  2049 7.6805e+07  172  295 7.6807e+07 7.6782e+07  0.03%   189 8235s
  2802  2053 7.6806e+07  240  249 7.6807e+07 7.6782e+07  0.03%   189 8240s
  2807  2056 7.6807e+07 1144  309 7.6807e+07 7.6782e+07  0.03%   188 8245s
  2816  2062 7.6805e+07  172  337 7.6807e+07 7.6783e+07  0.03%   188 8251s
  2822  2066 7.6806e+07  240  366 7.6807e+07 7.6783e+07  0.03%   187 8255s
  2830  2071 7.6807e+07  473  382 7.6807e+07 7.6783e+07  0.03%   187 8260s
  2838  2077 7.6807e+07  979  382 7.6807e+07 7.6783e+07  0.03%   186 8266s
  2844  2081 7.6807e+07  676  359 7.6807e+07 7.6784e+07  0.03%   186 8270s
  2853  2087 7.6807e+07  195  359 7.6807e+07 7.6785e+07  0.03%   185 8275s
  2860  2091 7.6807e+07  511  381 7.6807e+07 7.6785e+07  0.03%   185 8363s
  2862  2093 7.6806e+07  240  375 7.6807e+07 7.6785e+07  0.03%   185 8365s
  2870  2098 7.6807e+07  473  377 7.6807e+07 7.6785e+07  0.03%   184 8370s
  2878  2103 7.6807e+07  979  387 7.6807e+07 7.6785e+07  0.03%   184 8375s
  2885  2108 7.6807e+07  855  379 7.6807e+07 7.6785e+07  0.03%   183 8380s
  2893  2113 7.6807e+07  195  395 7.6807e+07 7.6785e+07  0.03%   183 8385s
  2900  2118 7.6807e+07  511  395 7.6807e+07 7.6786e+07  0.03%   182 8390s
  2907  2123 7.6807e+07 1144  401 7.6807e+07 7.6786e+07  0.03%   182 8395s
H 2913  2018                    7.680545e+07 7.6786e+07  0.03%   181 8483s
  2917  2020 7.6805e+07  874  401 7.6805e+07 7.6786e+07  0.03%   181 8485s
  2924  2025 7.6805e+07  676  413 7.6805e+07 7.6786e+07  0.03%   181 8490s
  2931  2030 7.6805e+07  870  410 7.6805e+07 7.6786e+07  0.03%   180 8495s
  2937  2034 7.6805e+07  874  395 7.6805e+07 7.6786e+07  0.02%   180 8500s
  2944  2038 7.6805e+07  676  411 7.6805e+07 7.6786e+07  0.02%   180 8505s
  2950  2042 7.6805e+07  473  426 7.6805e+07 7.6786e+07  0.02%   179 8518s
H 2951  1938                    7.680540e+07 7.6786e+07  0.02%   179 8602s
  2953  1941 7.6805e+07  195  165 7.6805e+07 7.6786e+07  0.02%   219 8605s
  2961  1946 7.6805e+07  721  217 7.6805e+07 7.6786e+07  0.02%   219 8610s
  2969  1952 7.6805e+07  769  278 7.6805e+07 7.6786e+07  0.02%   218 8615s
  2976  1956 7.6805e+07  172  310 7.6805e+07 7.6786e+07  0.02%   218 8620s
  2983  1961 7.6805e+07  722  315 7.6805e+07 7.6786e+07  0.02%   217 8625s
  2990  1966 7.6805e+07  473  338 7.6805e+07 7.6786e+07  0.02%   217 8630s
  2998  1971 7.6805e+07  979  310 7.6805e+07 7.6786e+07  0.02%   216 8635s
  3006  1976 7.6805e+07 1075  356 7.6805e+07 7.6786e+07  0.02%   216 8640s
  3014  1982 7.6802e+07   13  319 7.6805e+07 7.6786e+07  0.02%   215 8645s
  3021  1986 7.6805e+07  721  365 7.6805e+07 7.6786e+07  0.02%   214 8650s
  3030  1992 7.6805e+07  473  373 7.6805e+07 7.6786e+07  0.02%   214 8655s
  3038  1998 7.6805e+07  979  381 7.6805e+07 7.6786e+07  0.02%   213 8660s
  3046  2003 7.6805e+07 1075  377 7.6805e+07 7.6786e+07  0.02%   213 8665s
  3054  2008 7.6802e+07   13  383 7.6805e+07 7.6786e+07  0.02%   212 8670s
  3062  2014 7.6805e+07  240  386 7.6805e+07 7.6786e+07  0.02%   212 8675s
  3070  2019 7.6805e+07  473  347 7.6805e+07 7.6787e+07  0.02%   211 8680s
  3077  2024 7.6805e+07  874  388 7.6805e+07 7.6787e+07  0.02%   211 8685s
  3085  2029 7.6805e+07  855  388 7.6805e+07 7.6787e+07  0.02%   210 8690s
  3092  2034 7.6804e+07   49  397 7.6805e+07 7.6787e+07  0.02%   210 8695s
  3099  2038 7.6805e+07  477  394 7.6805e+07 7.6787e+07  0.02%   209 8700s
  3106  2043 7.6805e+07 1075  398 7.6805e+07 7.6787e+07  0.02%   209 8705s
  3112  2047 7.6804e+07   49  393 7.6805e+07 7.6787e+07  0.02%   208 8710s
  3120  2052 7.6805e+07  511  394 7.6805e+07 7.6788e+07  0.02%   208 8715s
  3127  2057 7.6805e+07 1144  406 7.6805e+07 7.6788e+07  0.02%   207 8720s
  3134  2062 7.6802e+07   13  389 7.6805e+07 7.6788e+07  0.02%   207 8725s
  3140  2066 7.6805e+07  511  403 7.6805e+07 7.6788e+07  0.02%   206 8730s
  3147  2070 7.6805e+07 1144  383 7.6805e+07 7.6788e+07  0.02%   206 8735s
  3154  2075 7.6802e+07   13  392 7.6805e+07 7.6788e+07  0.02%   205 8746s
  3155  2076 7.6805e+07  380  392 7.6805e+07 7.6788e+07  0.02%   205 8831s

Cutting planes:
  Gomory: 11
  MIR: 69
  Flow cover: 29
  Zero half: 14
  Lazy constraints: 12

Explored 3158 nodes (810726 simplex iterations) in 8832.81 seconds
Thread count was 4 (of 4 available processors)

Solution count 7: 7.68054e+07 7.68054e+07 7.68068e+07 ... 8.19325e+07
Pool objective bound 7.68037e+07

Optimal solution found (tolerance 1.00e-04)
Best objective 7.680539575610e+07, best bound 7.680370339414e+07, gap 0.0022%
